letting n_nurses=25
letting n_days=7
letting n_shift_types=4
letting max_covers=14
letting t_covers=87
letting covers=[12,8,0,0,1,6,2,0,3,14,4,0,0,0,0,0,7,10,0,0,0,0,0,0,11,9,0,0]
letting prefes=[1,2,2,4,2,3,1,4,2,1,1,4,1,2,2,4,2,3,1,4,2,3,1,4,2,1,1,4,2,2,1,4,2,3,1,4,1,1,2,1,2,2,1,4,2,3,1,4,2,3,1,4,1,1,2,1,2,2,2,1,1,3,4,2,2,1,1,4,2,2,2,1,1,3,4,2,1,3,4,2,2,1,1,4,2,2,1,4,1,3,4,2,2,1,1,4,2,2,1,4,1,3,4,2,1,3,4,2,2,1,1,4,2,1,2,4,1,3,1,4,2,1,1,1,2,1,2,4,1,3,1,4,1,3,1,4,2,1,1,1,2,2,2,1,1,3,1,4,2,1,1,4,2,2,2,1,1,3,1,4,1,3,1,4,2,1,1,4,1,2,2,4,1,1,4,2,1,1,2,4,1,2,2,4,1,1,4,2,1,1,4,2,1,1,2,4,2,2,2,1,1,3,1,4,1,2,1,1,2,2,2,1,1,3,1,4,1,3,1,4,1,2,1,1,2,2,1,4,1,3,1,4,1,2,1,4,2,2,1,4,1,3,1,4,1,3,1,4,1,2,1,4,2,1,2,4,1,3,1,4,2,1,1,4,2,1,2,4,1,3,1,4,1,3,1,4,2,1,1,4,2,2,2,1,1,3,4,2,2,1,1,4,2,2,2,1,1,3,4,2,1,3,4,2,2,1,1,4,2,1,2,4,2,3,1,4,2,1,1,4,2,1,2,4,2,3,1,4,2,3,1,4,2,1,1,4,2,1,2,4,2,1,1,4,2,2,2,1,2,1,2,4,2,1,1,4,2,1,1,4,2,2,2,1,2,1,2,4,1,3,1,4,2,1,1,4,2,1,2,4,1,3,1,4,1,3,1,4,2,1,1,4,1,2,2,4,2,3,1,4,2,2,1,4,1,2,2,4,2,3,1,4,2,3,1,4,2,2,1,4,2,2,2,4,1,3,1,4,2,1,1,4,2,2,2,4,1,3,1,4,1,3,1,4,2,1,1,4,1,2,2,4,1,1,1,4,2,1,1,4,1,2,2,4,1,1,1,4,1,1,1,4,2,1,1,4,2,2,2,4,1,1,1,4,2,1,1,4,2,2,2,4,1,1,1,4,1,1,1,4,2,1,1,4,2,2,2,4,1,3,1,4,2,1,1,4,2,2,2,4,1,3,1,4,1,3,1,4,2,1,1,4,1,2,2,4,1,3,1,4,2,1,1,4,1,2,2,4,1,3,1,4,1,3,1,4,2,1,1,4,2,2,2,1,1,1,4,2,2,1,1,4,2,2,2,1,1,1,4,2,1,1,4,2,2,1,1,4,2,2,2,4,1,3,1,4,2,2,2,1,2,2,2,4,1,3,1,4,1,3,1,4,2,2,2,1,2,2,2,4,1,3,1,4,1,1,2,4,2,2,2,4,1,3,1,4,1,3,1,4,1,1,2,4,2,2,1,4,1,3,1,4,2,1,1,4,2,2,1,4,1,3,1,4,1,3,1,4,2,1,1,4,2,2,1,4,1,3,1,4,2,1,1,4,2,2,1,4,1,3,1,4,1,3,1,4,2,1,1,4]
letting ub =  
